
Welcome to IBM(R) ILOG(R) CPLEX(R) Interactive Optimizer 22.1.1.0
  with Simplex, Mixed Integer & Barrier Optimizers
5725-A06 5725-A29 5724-Y48 5724-Y49 5724-Y54 5724-Y55 5655-Y21
Copyright IBM Corp. 1988, 2022.  All Rights Reserved.

Type 'help' for a list of available commands.
Type 'help' followed by a command name for more
information on commands.

CPLEX> Selected objective sense:  MINIMIZE
Selected objective  name:  00000000
Selected RHS        name:  RHS1
Selected bound      name:  BOUND
Problem 'ee.mps' read.
Read time = 0.03 sec. (3.17 ticks)
CPLEX> New value for time limit in seconds: 7200
CPLEX> New value for parallel optimization mode: -1
CPLEX> New value for default parallel thread count: 40
CPLEX> New value for mixed integer optimality gap tolerance: 1e-13
CPLEX> Version identifier: 22.1.1.0 | 2022-11-28 | 9160aff4d
CPXPARAM_Threads                                 40
CPXPARAM_Parallel                                -1
CPXPARAM_TimeLimit                               7200
CPXPARAM_MIP_Tolerances_MIPGap                   1e-13
Found incumbent of value 0.000000 after 0.00 sec. (0.31 ticks)
Tried aggregator 2 times.
MIP Presolve eliminated 184 rows and 2745 columns.
MIP Presolve modified 6090 coefficients.
Aggregator did 713 substitutions.
Reduced MIP has 3636 rows, 7840 columns, and 28953 nonzeros.
Reduced MIP has 7840 binaries, 0 generals, 0 SOSs, and 0 indicators.
Presolve time = 0.07 sec. (69.13 ticks)
Probing time = 0.03 sec. (5.33 ticks)
Tried aggregator 1 time.
Detecting symmetries...
Reduced MIP has 3636 rows, 7840 columns, and 28953 nonzeros.
Reduced MIP has 7840 binaries, 0 generals, 0 SOSs, and 0 indicators.
Presolve time = 0.02 sec. (22.10 ticks)
Probing time = 0.02 sec. (5.12 ticks)
Clique table members: 18788.
MIP emphasis: balance optimality and feasibility.
MIP search method: dynamic search.
Parallel mode: opportunistic, using up to 40 threads.
Root relaxation solution time = 0.17 sec. (181.11 ticks)

        Nodes                                         Cuts/
   Node  Left     Objective  IInf  Best Integer    Best Bound    ItCnt     Gap

*     0+    0                            0.0000  -1.54000e+13              --- 
*     0+    0                      -6.00000e+12  -1.54000e+13           156.67%
      0     0  -1.53900e+13   103  -6.00000e+12  -1.53900e+13     2614  156.50%
*     0+    0                      -1.53900e+13  -1.53900e+13             0.00%
      0     0  -1.53900e+13   111  -1.53900e+13      Cuts: 81     3159    0.00%
      0     0  -1.53900e+13   138  -1.53900e+13      Cuts: 39     3751    0.00%
*     0+    0                      -1.53900e+13  -1.53900e+13             0.00%
*     0+    0                      -1.53900e+13  -1.53900e+13             0.00%

Repeating presolve.
Tried aggregator 2 times.
MIP Presolve eliminated 2963 rows and 6671 columns.
MIP Presolve added 42 rows and 0 columns.
MIP Presolve modified 78 coefficients.
Aggregator did 442 substitutions.
Reduced MIP has 273 rows, 683 columns, and 2342 nonzeros.
Reduced MIP has 683 binaries, 0 generals, 0 SOSs, and 0 indicators.
Presolve time = 0.02 sec. (18.89 ticks)
Probing fixed 1 vars, tightened 0 bounds.
Probing time = 0.00 sec. (0.79 ticks)
Tried aggregator 1 time.
Detecting symmetries...
MIP Presolve eliminated 0 rows and 1 columns.
Reduced MIP has 273 rows, 682 columns, and 2338 nonzeros.
Reduced MIP has 682 binaries, 0 generals, 0 SOSs, and 0 indicators.
Presolve time = 0.00 sec. (1.61 ticks)
Represolve time = 0.04 sec. (36.32 ticks)
Probing time = 0.00 sec. (0.74 ticks)
Clique table members: 1104.
MIP emphasis: balance optimality and feasibility.
MIP search method: dynamic search.
Parallel mode: opportunistic, using up to 40 threads.
Root relaxation solution time = 0.01 sec. (7.78 ticks)

        Nodes                                         Cuts/
   Node  Left     Objective  IInf  Best Integer    Best Bound    ItCnt     Gap

*     0+    0                      -1.53900e+13  -1.53900e+13             0.00%
      0     0  -1.53900e+13    73  -1.53900e+13  -1.53900e+13     4138    0.00%
      0     0  -1.53900e+13    27  -1.53900e+13     Cuts: 101     4249    0.00%
      0     0  -1.53900e+13    26  -1.53900e+13      Cuts: 44     4293    0.00%
*     0+    0                      -1.53900e+13  -1.53900e+13             0.00%
      0     0  -1.53900e+13     2  -1.53900e+13      Cuts: 19     4379    0.00%
      0     0        cutoff        -1.53900e+13                   4379    0.00%
Elapsed time = 1.17 sec. (968.68 ticks, tree = 0.01 MB, solutions = 7)

GUB cover cuts applied:  1
Clique cuts applied:  57
Cover cuts applied:  20
Mixed integer rounding cuts applied:  8
Zero-half cuts applied:  6
Lift and project cuts applied:  7
Gomory fractional cuts applied:  11

Root node processing (before b&c):
  Real time             =    1.17 sec. (969.49 ticks)
Parallel b&c, 40 threads:
  Real time             =    0.00 sec. (0.00 ticks)
  Sync time (average)   =    0.00 sec.
  Wait time (average)   =    0.00 sec.
                          ------------
Total (root+branch&cut) =    1.17 sec. (969.49 ticks)

Solution pool: 7 solutions saved.

MIP - Integer optimal solution:  Objective = -1.5389999389e+13
Solution time =    1.20 sec.  Iterations = 4379  Nodes = 0
Deterministic time = 969.52 ticks  (809.46 ticks/sec)

CPLEX> Solution 'p8' written to file 'ee.sol'.
CPLEX> 